561 1088
73 1 -4
259 1 4
260 1 -4
278 1 4
52 2 4
264 2 -4
399 2 4
432 2 -4
4 3 -4
346 3 4
402 3 4
473 3 -4
21 4 4
342 4 4
343 4 -4
6 5 4
32 5 -4
212 5 4
270 5 -4
85 6 -4
214 6 -4
380 6 4
209 7 -4
264 7 -4
437 7 4
470 7 4
9 8 4
210 8 4
217 8 -4
256 8 -4
211 9 -4
219 9 -4
408 9 4
11 10 4
79 10 -4
147 10 4
312 10 -4
182 11 4
311 11 -4
450 11 -4
13 12 4
14 12 -4
457 12 -4
497 12 4
215 13 -4
222 13 -4
389 13 4
101 14 4
218 14 -4
420 14 4
16 15 4
136 15 4
291 15 -4
330 15 -4
178 16 4
290 16 -4
491 16 -4
18 17 4
19 17 -4
422 17 -4
540 17 4
80 18 4
213 18 -4
220 18 -4
109 19 4
220 19 -4
455 19 4
21 20 4
209 20 -4
348 20 4
475 20 -4
514 21 -4
517 21 -4
271 22 4
328 22 4
413 22 -4
530 22 -4
24 23 4
127 23 4
313 23 -4
357 23 -4
98 24 -4
170 24 4
533 24 -4
26 25 4
27 25 -4
81 25 4
391 25 -4
46 26 -4
218 26 -4
390 26 4
115 27 4
222 27 -4
495 27 4
29 28 4
51 28 -4
315 28 4
459 28 -4
71 29 -4
81 29 -4
501 29 4
31 30 -4
372 30 4
557 30 4
558 30 -4
124 31 4
150 31 4
513 31 -4
44 32 4
86 32 -4
442 32 4
34 33 -4
88 33 4
288 33 4
355 33 -4
157 34 4
158 34 4
246 34 -4
36 35 4
122 35 4
331 35 -4
385 35 -4
87 36 -4
128 36 -4
531 36 4
38 37 4
63 37 4
294 37 -4
535 37 -4
122 38 -4
291 38 -4
387 38 4
276 39 -4
335 39 4
423 39 -4
542 39 4
315 40 -4
335 40 4
366 40 4
394 40 -4
42 41 4
43 41 4
132 41 -4
305 41 -4
519 42 -4
217 43 4
407 43 -4
410 43 -4
217 44 -4
288 44 -4
309 44 4
78 45 4
257 45 -4
309 45 4
383 45 -4
47 46 4
57 46 4
292 46 -4
147 47 -4
235 47 -4
418 47 4
49 48 4
258 48 -4
364 48 4
392 48 -4
64 49 4
221 49 -4
295 49 -4
51 50 -4
104 50 4
364 50 4
428 50 -4
153 51 4
154 51 4
124 52 -4
282 52 4
402 52 -4
54 53 4
211 53 -4
442 53 -4
521 53 4
479 54 -4
69 55 4
272 55 -4
326 55 4
416 55 -4
136 56 -4
191 56 4
213 56 4
230 56 -4
213 57 -4
456 57 4
496 57 -4
247 58 4
420 58 4
423 58 -4
456 58 -4
93 59 4
276 59 -4
393 59 4
465 59 -4
289 60 -4
353 60 4
415 60 4
448 60 -4
312 61 -4
415 61 4
449 61 4
530 61 -4
127 62 -4
197 62 4
215 62 4
227 62 -4
215 63 -4
421 63 4
539 63 -4
389 64 4
421 64 -4
459 64 -4
83 65 4
258 65 -4
426 65 4
505 65 -4
210 66 -4
257 66 -4
382 66 4
444 66 4
310 67 -4
382 67 4
447 67 4
488 67 -4
69 68 -4
135 68 4
447 68 4
490 68 -4
151 69 -4
170 69 4
89 70 -4
122 70 -4
203 70 4
218 70 4
80 71 4
390 71 -4
542 71 4
277 72 -4
462 72 4
464 72 4
547 72 -4
105 73 4
396 73 -4
464 73 4
75 74 4
370 74 -4
514 74 4
556 74 -4
181 75 4
299 75 -4
431 75 -4
212 76 -4
272 76 -4
410 76 4
527 76 4
78 77 -4
126 77 4
487 77 4
532 77 -4
145 78 -4
178 78 4
386 79 4
453 79 4
535 79 -4
359 80 -4
361 80 -4
334 81 -4
538 81 4
83 82 -4
94 82 4
279 82 -4
504 82 4
154 83 -4
548 83 4
176 84 4
281 84 -4
398 84 -4
470 84 4
520 85 4
97 86 4
289 86 -4
381 86 4
88 87 -4
121 87 4
529 87 4
134 88 -4
182 88 4
90 89 4
417 89 -4
493 89 4
121 90 -4
196 90 4
357 90 -4
92 91 4
248 91 -4
260 91 -4
545 91 4
192 92 -4
459 92 4
460 92 -4
224 93 -4
316 93 -4
506 93 4
224 94 -4
242 94 4
250 94 -4
167 95 4
263 95 -4
369 95 -4
434 95 4
270 96 -4
480 96 4
308 97 -4
446 97 4
486 97 -4
99 98 4
114 98 4
328 98 -4
134 99 4
384 99 -4
446 99 -4
114 100 -4
227 100 4
330 100 -4
452 100 4
535 101 4
536 101 -4
537 101 -4
199 102 -4
423 102 4
424 102 -4
502 102 4
154 103 4
226 103 4
278 103 -4
503 103 -4
193 104 4
226 104 -4
336 104 -4
226 105 -4
237 105 4
262 105 -4
162 106 4
251 106 -4
339 106 -4
401 106 4
256 107 -4
440 107 4
290 108 4
327 108 4
356 108 -4
414 108 -4
198 109 -4
493 109 4
494 109 -4
228 110 4
261 110 -4
316 110 4
463 110 -4
117 111 -4
319 111 -4
372 111 4
555 111 4
125 112 4
229 112 -4
284 112 4
302 112 -4
120 113 -4
311 113 4
329 113 -4
354 113 4
311 114 -4
491 114 4
204 115 -4
453 115 4
454 115 -4
231 116 4
249 116 -4
336 116 4
427 116 -4
118 117 4
119 117 4
232 117 -4
263 118 -4
297 118 4
337 118 -4
264 119 -4
299 119 -4
342 119 4
195 120 4
382 120 4
383 120 -4
329 121 -4
533 121 4
533 122 4
131 123 -4
236 123 4
241 123 -4
365 123 4
251 124 4
281 124 -4
238 125 -4
128 126 4
356 126 -4
386 126 -4
128 127 4
292 127 -4
331 128 -4
359 129 4
391 129 -4
494 129 -4
540 129 4
180 130 -4
185 130 4
364 130 4
543 130 -4
199 131 4
393 131 4
394 131 -4
164 132 4
325 132 -4
407 132 4
164 133 -4
195 133 4
309 133 4
381 133 -4
309 134 4
310 134 -4
137 135 4
384 135 -4
417 135 -4
137 136 4
273 136 -4
313 137 -4
532 137 -4
388 138 4
422 138 -4
454 138 -4
497 138 4
180 139 4
296 139 -4
335 139 4
499 139 -4
141 140 -4
142 140 4
243 140 -4
282 140 4
181 141 4
300 141 4
345 141 -4
252 142 -4
254 142 4
268 142 -4
156 143 4
379 143 4
409 143 -4
440 143 -4
156 144 -4
190 144 4
288 144 4
352 144 -4
288 145 4
289 145 -4
529 145 4
202 146 -4
449 146 4
529 146 4
530 146 -4
148 147 4
274 147 -4
291 148 -4
449 148 4
490 148 -4
174 149 4
277 149 -4
315 149 4
460 149 -4
186 150 4
252 150 -4
374 150 -4
271 151 4
272 151 -4
487 151 4
206 152 -4
487 152 4
488 152 -4
490 152 4
258 153 -4
363 153 4
424 153 -4
296 154 -4
162 155 4
266 155 4
283 155 -4
555 155 -4
157 156 4
307 156 -4
310 157 -4
483 157 -4
257 158 -4
415 158 -4
447 158 4
188 159 -4
248 159 4
391 159 4
425 159 -4
276 160 4
277 160 -4
464 160 -4
546 160 4
466 161 4
546 161 4
547 161 -4
550 161 -4
513 162 -4
514 162 -4
164 163 -4
256 163 4
306 163 4
523 163 -4
165 164 4
257 165 4
289 165 -4
443 165 -4
504 166 4
505 166 -4
507 166 4
508 166 -4
265 167 4
469 167 -4
471 167 -4
169 168 4
270 168 4
352 168 -4
409 168 -4
177 169 4
350 169 -4
380 169 -4
383 170 -4
385 170 -4
274 171 4
533 171 4
534 171 -4
536 171 -4
173 172 4
273 172 4
274 172 -4
333 172 -4
387 173 -4
420 173 -4
495 173 4
188 174 4
498 174 -4
500 174 -4
464 175 4
465 175 -4
467 175 -4
549 175 4
282 176 4
433 176 -4
436 176 -4
324 177 -4
355 178 -4
357 178 -4
198 179 -4
293 179 4
491 179 4
492 179 -4
184 180 4
458 180 -4
400 181 -4
403 181 -4
328 182 -4
330 182 -4
204 183 -4
314 183 4
450 183 4
451 183 -4
420 184 4
421 184 -4
424 184 -4
316 185 4
544 185 -4
545 185 -4
370 186 4
371 186 -4
373 186 -4
327 187 4
525 187 4
526 187 -4
528 187 -4
389 188 4
390 188 -4
336 189 4
500 189 4
501 189 -4
503 189 -4
354 190 4
485 190 -4
486 190 -4
359 191 -4
454 191 -4
536 191 4
365 192 4
461 192 4
463 192 -4
194 193 4
366 193 -4
467 193 -4
368 194 4
430 194 -4
548 194 -4
445 195 -4
446 195 -4
198 196 4
386 196 -4
536 196 -4
198 197 4
388 197 -4
494 197 -4
425 199 4
427 199 -4
201 200 4
405 200 -4
208 201 -4
559 201 4
560 201 -4
417 202 4
531 202 4
534 202 -4
204 203 4
419 203 -4
537 203 -4
452 204 4
438 205 -4
561 205 4
451 206 4
489 206 4
492 206 -4
469 207 4
551 207 4
552 207 -4
554 207 -4
561 208 4
435 209 4
473 209 -4
246 210 4
522 210 4
240 212 4
482 212 4
273 213 -4
479 214 -4
274 215 -4
270 216 -4
519 216 -4
308 217 -4
293 218 -4
256 219 -4
314 220 -4
453 220 4
392 221 -4
455 221 4
496 221 -4
332 222 -4
493 222 4
362 223 -4
495 223 4
539 223 -4
542 223 -4
297 224 -4
546 224 4
233 225 -4
476 225 -4
317 226 -4
451 227 -4
535 227 -4
279 228 -4
337 228 -4
366 228 -4
244 229 -4
450 230 4
492 230 -4
493 230 -4
297 231 -4
367 231 -4
394 231 -4
279 232 4
281 232 -4
367 232 -4
234 233 -4
267 233 4
321 233 -4
254 234 -4
453 235 -4
491 235 4
534 235 -4
317 236 -4
395 236 -4
428 236 -4
251 237 -4
299 237 -4
395 237 -4
239 238 -4
253 238 4
347 238 -4
268 239 -4
271 240 -4
326 240 4
524 240 4
337 241 -4
429 241 -4
465 241 -4
263 242 -4
319 242 -4
429 242 -4
244 243 4
266 243 -4
285 243 -4
245 244 -4
375 244 -4
285 245 -4
353 246 4
484 246 4
248 247 -4
275 247 -4
361 247 -4
276 248 -4
367 249 -4
466 249 -4
505 249 -4
281 250 -4
339 250 -4
466 250 -4
509 251 -4
253 252 -4
265 252 4
283 253 -4
303 253 -4
255 254 -4
559 254 -4
303 255 -4
260 258 -4
296 259 -4
502 259 4
504 259 4
504 260 -4
395 261 -4
507 261 -4
547 261 -4
299 262 -4
369 262 -4
507 262 -4
340 263 -4
265 264 4
301 265 -4
267 266 -4
344 266 -4
301 267 -4
322 267 -4
269 268 -4
516 268 -4
322 269 -4
525 271 4
411 272 -4
331 273 -4
277 275 -4
362 275 -4
393 275 4
429 278 -4
549 278 -4
280 279 -4
319 280 -4
398 280 -4
549 280 -4
320 282 -4
284 283 -4
373 283 -4
320 284 -4
348 284 -4
286 285 -4
474 285 -4
348 286 -4
325 287 -4
351 287 4
443 287 -4
480 287 -4
312 290 -4
355 290 -4
293 291 -4
313 292 -4
358 292 4
358 293 -4
358 294 -4
360 294 -4
455 294 -4
296 295 -4
334 295 -4
426 295 4
298 297 -4
339 298 -4
431 298 -4
550 298 4
340 300 -4
435 300 -4
554 300 -4
302 301 -4
403 301 -4
345 302 -4
376 302 -4
304 303 -4
517 303 -4
376 304 -4
306 305 -4
378 306 -4
408 306 -4
324 307 4
483 307 -4
520 307 -4
310 308 -4
352 308 4
383 311 -4
450 312 4
314 313 -4
387 314 -4
316 315 4
318 317 -4
509 317 -4
369 318 -4
468 318 -4
508 318 4
370 319 -4
321 320 -4
436 320 -4
374 321 -4
405 321 -4
323 322 -4
560 322 -4
405 323 -4
406 324 -4
441 324 -4
411 325 -4
525 325 4
327 326 4
412 326 4
328 327 -4
330 329 -4
416 329 -4
332 331 -4
418 332 -4
452 332 4
389 333 -4
418 333 -4
538 333 4
391 334 -4
500 334 4
336 335 4
338 337 -4
398 338 -4
467 338 4
511 338 -4
341 339 -4
343 340 -4
512 340 -4
343 341 -4
470 341 -4
511 341 -4
344 342 4
469 342 -4
344 343 -4
404 344 -4
347 345 -4
471 345 -4
376 346 4
438 346 -4
558 346 4
404 347 -4
438 347 -4
349 348 -4
438 349 -4
351 350 -4
439 351 -4
481 351 -4
481 352 -4
354 353 4
445 353 4
355 354 -4
357 356 -4
448 356 -4
359 358 -4
361 360 -4
419 360 4
457 360 -4
363 361 -4
422 362 -4
461 362 4
461 363 -4
541 363 -4
365 364 4
366 365 -4
368 367 -4
431 368 -4
553 368 -4
371 369 -4
468 370 -4
434 371 -4
553 371 -4
373 372 4
433 372 -4
437 373 -4
375 374 -4
514 374 -4
437 375 -4
475 375 -4
377 376 -4
475 377 -4
379 378 -4
478 379 -4
521 379 -4
381 380 -4
443 380 -4
521 381 -4
485 382 4
385 384 -4
488 384 -4
386 385 -4
388 387 -4
390 388 -4
425 392 4
457 392 -4
500 393 4
506 394 -4
397 395 -4
397 396 -4
506 396 -4
509 396 -4
399 397 -4
468 397 -4
400 398 -4
400 399 -4
510 399 -4
401 400 -4
403 401 4
435 401 4
434 402 4
472 402 4
472 403 -4
556 404 -4
559 404 -4
473 405 4
407 406 -4
518 407 -4
410 408 -4
483 408 -4
411 409 -4
412 409 -4
412 410 -4
413 411 -4
413 412 -4
414 413 -4
416 414 -4
527 414 4
531 415 4
531 416 -4
452 417 -4
419 418 -4
421 419 -4
424 422 4
497 423 -4
462 425 4
427 426 4
461 426 4
428 427 -4
548 428 -4
430 429 -4
432 430 -4
511 430 -4
433 431 -4
433 432 -4
552 432 -4
436 434 4
515 435 4
515 436 -4
516 437 -4
440 439 -4
442 440 -4
444 441 -4
519 441 4
523 441 -4
444 442 -4
445 443 -4
445 444 -4
448 446 -4
489 447 4
489 448 -4
451 449 -4
456 454 -4
458 455 4
458 456 -4
460 457 4
460 458 -4
540 459 -4
463 462 4
544 462 -4
465 463 -4
551 466 -4
551 467 -4
469 468 -4
471 470 4
557 471 -4
474 472 -4
559 472 -4
476 473 -4
476 474 -4
557 474 -4
477 475 -4
477 476 -4
480 478 -4
481 479 4
482 479 -4
482 480 -4
484 481 -4
484 482 -4
485 483 -4
485 484 -4
488 486 -4
529 486 -4
528 487 -4
532 489 4
492 490 -4
496 494 -4
498 495 4
498 496 -4
499 497 4
499 498 -4
501 499 -4
502 501 -4
503 502 4
505 503 -4
508 506 -4
510 507 -4
510 508 -4
512 509 -4
512 510 -4
513 511 -4
513 512 -4
516 515 -4
517 515 -4
561 516 4
561 517 -4
520 518 -4
522 519 -4
522 520 -4
524 521 -4
524 522 -4
525 523 -4
526 523 -4
526 524 -4
527 526 4
528 527 -4
530 528 -4
534 532 -4
538 537 -4
539 537 -4
541 538 4
541 539 -4
543 540 4
543 541 -4
544 542 4
544 543 -4
546 545 -4
547 545 -4
550 548 -4
552 549 -4
552 550 -4
553 551 -4
554 553 -4
555 554 -4
556 555 -4
558 556 -4
560 557 -4
560 558 -4
353
209 2
210 -2
211 2
212 -2
213 2
214 2
215 2
216 2
217 2
218 2
219 2
220 2
221 2
222 2
223 2
224 2
225 2
226 2
227 2
228 2
229 2
230 2
231 2
232 2
233 2
234 2
235 2
236 2
237 2
238 2
239 2
240 -2
241 4
242 2
243 2
244 2
245 2
246 -2
247 2
248 2
249 4
250 4
251 2
252 2
253 2
254 2
255 2
256 2
257 2
258 4
259 -2
260 4
261 4
262 4
263 4
264 2
265 -2
266 2
267 2
268 4
269 2
270 2
271 -2
272 4
273 2
274 2
275 2
276 2
277 4
278 2
279 2
280 4
281 4
282 -2
283 4
284 2
285 4
286 2
287 2
288 -2
289 4
290 2
291 4
292 2
293 2
294 4
295 2
296 4
297 2
298 2
299 4
300 2
301 4
302 4
303 4
304 2
305 2
306 2
307 2
308 2
309 -4
310 4
311 2
312 2
313 4
314 2
315 -2
316 -2
317 4
318 2
319 4
320 4
321 4
322 4
323 2
324 2
325 2
326 -4
327 -2
328 2
329 4
330 4
331 4
332 2
333 2
334 2
335 -4
336 -2
337 4
338 2
339 4
340 4
341 4
342 -2
343 4
344 2
345 4
346 -2
347 4
348 2
349 2
350 2
351 2
352 2
353 -4
354 -2
355 4
356 4
357 4
358 2
359 2
360 2
361 4
362 2
363 2
364 -4
365 -2
366 2
367 4
368 2
369 4
370 2
371 4
372 -2
373 2
374 4
375 4
376 2
377 2
378 2
379 2
380 2
381 2
382 -4
383 4
384 4
385 4
386 2
387 2
388 2
389 -2
390 2
391 2
392 2
393 -4
394 4
395 4
396 4
397 4
398 4
399 2
400 4
401 -2
402 -2
403 2
404 4
405 2
406 2
407 2
408 2
409 4
410 2
411 4
412 2
413 4
414 2
415 -2
416 4
417 2
418 2
419 2
420 -2
421 2
422 2
423 2
424 2
425 -2
426 -4
427 2
428 4
429 4
430 4
431 4
432 4
433 4
434 -2
435 -2
436 2
437 2
438 4
439 2
440 2
441 2
442 2
443 4
444 2
445 2
446 2
447 -4
448 4
449 -2
450 -2
451 2
452 -2
453 -2
454 4
455 -2
456 2
457 2
458 2
459 2
460 2
461 -2
462 -2
463 2
464 -2
465 4
466 2
467 2
468 4
469 2
470 -2
471 2
472 2
473 2
474 4
475 4
476 4
477 2
478 2
479 2
480 2
481 2
482 2
483 4
484 2
485 2
486 4
487 -2
488 4
489 -2
490 2
491 -2
492 4
493 -2
494 4
495 -4
496 4
497 -2
498 2
499 2
500 -2
501 2
502 -2
503 2
504 -2
505 4
506 2
507 2
508 2
509 4
510 4
511 4
512 4
513 4
514 2
515 2
516 2
517 4
518 2
519 2
520 2
521 2
522 2
523 4
524 2
525 -2
526 2
527 -2
528 4
529 -2
530 4
531 -2
532 2
533 -2
534 4
535 2
536 2
537 4
538 -2
539 4
540 -2
541 2
542 -2
543 2
544 2
545 2
546 -2
547 4
548 2
549 2
550 2
551 2
552 4
553 4
554 4
555 2
556 4
557 2
558 2
559 2
560 4
561 -2
